ODB Name,Step,Frame,Part Instance Name, Element Label,         IntPt,X,Y,Z,Section Name,Material Name,Section Point,E-Max. In-Plane Principal,E-Max. In-Plane Principal (Abs),       S-Mises,S-Max. In-Plane Principal
C:/temp/newjob.odb,Step-1,Increment      1: Step Time =    1.000,"RIGHTSIDE1-1",             1,             1,      -1.40986,       1.46485,            0.,"ASSEMBLY_RIGHTSIDE1-1_SET-5","A36","",   3.59717E-03,   3.59717E-03,   107.115E+03,   109.213E+03
C:/temp/newjob.odb,Step-1,Increment      1: Step Time =    1.000,"RIGHTSIDE1-1",             1,             2,      -1.40413,       1.51466,            0.,"ASSEMBLY_RIGHTSIDE1-1_SET-5","A36","",   3.01285E-03,   3.01285E-03,   89.6160E+03,   91.6518E+03
C:/temp/newjob.odb,Step-1,Increment      1: Step Time =    1.000,"RIGHTSIDE1-1",             1,             3,      -1.45199,       1.47022,            0.,"ASSEMBLY_RIGHTSIDE1-1_SET-5","A36","",   3.65370E-03,   3.65370E-03,   109.094E+03,   110.425E+03
C:/temp/newjob.odb,Step-1,Increment      1: Step Time =    1.000,"RIGHTSIDE1-1",             1,             4,      -1.44893,       1.51411,            0.,"ASSEMBLY_RIGHTSIDE1-1_SET-5","A36","",   2.98794E-03,   2.98794E-03,   89.1334E+03,   90.4403E+03
C:/temp/newjob.odb,Step-1,Increment      1: Step Time =    1.000,"RIGHTSIDE1-1",             2,             1,      -1.38953,       1.78187,            0.,"ASSEMBLY_RIGHTSIDE1-1_SET-5","A36","",   1.13313E-03,   1.13313E-03,   33.5379E+03,   34.7992E+03
C:/temp/newjob.odb,Step-1,Increment      1: Step Time =    1.000,"RIGHTSIDE1-1",             2,             2,      -1.32684,       1.84001,            0.,"ASSEMBLY_RIGHTSIDE1-1_SET-5","A36","",   925.437E-06,   925.437E-06,   27.4360E+03,   28.3259E+03
C:/temp/newjob.odb,Step-1,Increment      1: Step Time =    1.000,"RIGHTSIDE1-1",             2,             3,      -1.50004,       1.80152,            0.,"ASSEMBLY_RIGHTSIDE1-1_SET-5","A36","",   1.10621E-03,   1.10621E-03,   33.2619E+03,   33.0752E+03
C:/temp/newjob.odb,Step-1,Increment      1: Step Time =    1.000,"RIGHTSIDE1-1",             2,             4,      -1.48324,       1.84528,            0.,"ASSEMBLY_RIGHTSIDE1-1_SET-5","A36","",   816.529E-06,   816.529E-06,   24.5704E+03,   24.3870E+03
C:/temp/newjob.odb,Step-1,Increment      1: Step Time =    1.000,"RIGHTSIDE1-1",             3,             1,      -1.19770,       1.38475,            0.,"ASSEMBLY_RIGHTSIDE1-1_SET-5","A36","",   1.88113E-03,   1.88113E-03,   56.2739E+03,   56.6807E+03
C:/temp/newjob.odb,Step-1,Increment      1: Step Time =    1.000,"RIGHTSIDE1-1",             3,             2,      -1.15655,       1.44415,            0.,"ASSEMBLY_RIGHTSIDE1-1_SET-5","A36","",   1.59480E-03,   1.59480E-03,   48.8189E+03,   46.5848E+03
C:/temp/newjob.odb,Step-1,Increment      1: Step Time =    1.000,"RIGHTSIDE1-1",             3,             3,      -1.23132,       1.41206,            0.,"ASSEMBLY_RIGHTSIDE1-1_SET-5","A36","",   1.82787E-03,   1.82787E-03,   54.1164E+03,   56.1003E+03
C:/temp/newjob.odb,Step-1,Increment      1: Step Time =    1.000,"RIGHTSIDE1-1",             3,             4,      -1.18422,       1.48694,            0.,"ASSEMBLY_RIGHTSIDE1-1_SET-5","A36","",   1.60540E-03,   1.60540E-03,   48.2613E+03,   48.0161E+03
C:/temp/newjob.odb,Step-1,Increment      1: Step Time =    1.000,"RIGHTSIDE1-1",             4,             1,  -912.523E-03,   952.669E-03,            0.,"ASSEMBLY_RIGHTSIDE1-1_SET-5","A36","",   374.186E-06,  -955.667E-06,   29.3533E+03,   2.88415E+03
C:/temp/newjob.odb,Step-1,Increment      1: Step Time =    1.000,"RIGHTSIDE1-1",             4,             2,  -816.618E-03,   963.572E-03,            0.,"ASSEMBLY_RIGHTSIDE1-1_SET-5","A36","",   294.545E-06,  -697.807E-06,   21.6332E+03,   2.80889E+03
C:/temp/newjob.odb,Step-1,Increment      1: Step Time =    1.000,"RIGHTSIDE1-1",             4,             3,  -918.611E-03,   994.823E-03,            0.,"ASSEMBLY_RIGHTSIDE1-1_SET-5","A36","",   257.667E-06,  -915.822E-06,   27.3664E+03,      -563.076
C:/temp/newjob.odb,Step-1,Increment      1: Step Time =    1.000,"RIGHTSIDE1-1",             4,             4,  -818.740E-03,       1.00848,            0.,"ASSEMBLY_RIGHTSIDE1-1_SET-5","A36","",   186.997E-06,  -670.446E-06,   20.0242E+03,      -466.050
C:/temp/newjob.odb,Step-1,Increment      1: Step Time =    1.000,"RIGHTSIDE1-1",             5,             1,  -31.8023E-03,       1.28570,            0.,"ASSEMBLY_RIGHTSIDE1-1_SET-5","A36","",   855.998E-06,   855.998E-06,   25.4205E+03,   26.1158E+03
C:/temp/newjob.odb,Step-1,Increment      1: Step Time =    1.000,"RIGHTSIDE1-1",             5,             2,   71.9249E-03,       1.34861,            0.,"ASSEMBLY_RIGHTSIDE1-1_SET-5","A36","",   839.305E-06,   839.305E-06,   24.9607E+03,   25.5393E+03
C:/temp/newjob.odb,Step-1,Increment      1: Step Time =    1.000,"RIGHTSIDE1-1",             5,             3,  -126.410E-03,       1.36427,            0.,"ASSEMBLY_RIGHTSIDE1-1_SET-5","A36","",   854.842E-06,   854.842E-06,   25.3775E+03,   26.0973E+03
C:/temp/newjob.odb,Step-1,Increment      1: Step Time =    1.000,"RIGHTSIDE1-1",             5,             4,  -23.2506E-03,       1.47501,            0.,"ASSEMBLY_RIGHTSIDE1-1_SET-5","A36","",   841.611E-06,   841.611E-06,   25.0153E+03,   25.6353E+03
C:/temp/newjob.odb,Step-1,Increment      1: Step Time =    1.000,"RIGHTSIDE1-1",             6,             1,      -1.52461,       1.51388,            0.,"ASSEMBLY_RIGHTSIDE1-1_SET-5","A36","",   3.23856E-03,   3.23856E-03,   96.3653E+03,   98.4535E+03
C:/temp/newjob.odb,Step-1,Increment      1: Step Time =    1.000,"RIGHTSIDE1-1",             6,             2,      -1.52505,       1.47471,            0.,"ASSEMBLY_RIGHTSIDE1-1_SET-5","A36","",   3.97636E-03,   3.97636E-03,   118.485E+03,   120.588E+03
C:/temp/newjob.odb,Step-1,Increment      1: Step Time =    1.000,"RIGHTSIDE1-1",             6,             3,      -1.48121,       1.51390,            0.,"ASSEMBLY_RIGHTSIDE1-1_SET-5","A36","",   3.25016E-03,   3.25016E-03,   96.6251E+03,   98.9621E+03
C:/temp/newjob.odb,Step-1,Increment      1: Step Time =    1.000,"RIGHTSIDE1-1",             6,             4,      -1.48285,       1.47286,            0.,"ASSEMBLY_RIGHTSIDE1-1_SET-5","A36","",   3.95391E-03,   3.95391E-03,   117.718E+03,   120.080E+03
C:/temp/newjob.odb,Step-1,Increment      1: Step Time =    1.000,"RIGHTSIDE1-1",             7,             1,      -1.51750,       1.73359,            0.,"ASSEMBLY_RIGHTSIDE1-1_SET-5","A36","",   1.55253E-03,   1.55253E-03,   46.1787E+03,   47.2298E+03
C:/temp/newjob.odb,Step-1,Increment      1: Step Time =    1.000,"RIGHTSIDE1-1",             7,             2,      -1.45470,       1.71048,            0.,"ASSEMBLY_RIGHTSIDE1-1_SET-5","A36","",   1.55287E-03,   1.55287E-03,   45.7193E+03,   48.2798E+03
C:/temp/newjob.odb,Step-1,Increment      1: Step Time =    1.000,"RIGHTSIDE1-1",             7,             3,      -1.50922,       1.77160,            0.,"ASSEMBLY_RIGHTSIDE1-1_SET-5","A36","",   1.40009E-03,   1.40009E-03,   41.6694E+03,   42.5468E+03
C:/temp/newjob.odb,Step-1,Increment      1: Step Time =    1.000,"RIGHTSIDE1-1",             7,             4,      -1.42379,       1.74716,            0.,"ASSEMBLY_RIGHTSIDE1-1_SET-5","A36","",   1.42374E-03,   1.42374E-03,   42.0050E+03,   44.0331E+03
C:/temp/newjob.odb,Step-1,Increment      1: Step Time =    1.000,"RIGHTSIDE1-1",             8,             1,      -1.48967,       1.66158,            0.,"ASSEMBLY_RIGHTSIDE1-1_SET-5","A36","",   1.83582E-03,   1.83582E-03,   53.8909E+03,   57.5831E+03
C:/temp/newjob.odb,Step-1,Increment      1: Step Time =    1.000,"RIGHTSIDE1-1",             8,             2,      -1.47235,       1.68755,            0.,"ASSEMBLY_RIGHTSIDE1-1_SET-5","A36","",   1.69028E-03,   1.69028E-03,   49.6452E+03,    52.924E+03
C:/temp/newjob.odb,Step-1,Increment      1: Step Time =    1.000,"RIGHTSIDE1-1",             8,             3,      -1.52687,       1.67168,            0.,"ASSEMBLY_RIGHTSIDE1-1_SET-5","A36","",   1.83537E-03,   1.83537E-03,   54.0655E+03,   56.9818E+03
C:/temp/newjob.odb,Step-1,Increment      1: Step Time =    1.000,"RIGHTSIDE1-1",             8,             4,      -1.52223,       1.70682,            0.,"ASSEMBLY_RIGHTSIDE1-1_SET-5","A36","",   1.70513E-03,   1.70513E-03,   50.2131E+03,   52.9826E+03
C:/temp/newjob.odb,Step-1,Increment      1: Step Time =    1.000,"RIGHTSIDE1-1",             9,             1,  -884.110E-03,   877.344E-03,            0.,"ASSEMBLY_RIGHTSIDE1-1_SET-5","A36","",  -2.85574E-06,  -814.936E-06,   23.8850E+03,  -8.15395E+03
C:/temp/newjob.odb,Step-1,Increment      1: Step Time =    1.000,"RIGHTSIDE1-1",             9,             2,  -727.548E-03,   879.435E-03,            0.,"ASSEMBLY_RIGHTSIDE1-1_SET-5","A36","",   144.380E-06,  -643.636E-06,   19.0388E+03,  -1.60584E+03
C:/temp/newjob.odb,Step-1,Increment      1: Step Time =    1.000,"RIGHTSIDE1-1",             9,             3,  -903.278E-03,   921.191E-03,            0.,"ASSEMBLY_RIGHTSIDE1-1_SET-5","A36","",   188.124E-06,  -918.104E-06,   27.0824E+03,  -2.87826E+03
C:/temp/newjob.odb,Step-1,Increment      1: Step Time =    1.000,"RIGHTSIDE1-1",             9,             4,  -792.183E-03,   928.995E-03,            0.,"ASSEMBLY_RIGHTSIDE1-1_SET-5","A36","",   344.644E-06,  -670.691E-06,   21.4608E+03,   4.72869E+03
C:/temp/newjob.odb,Step-1,Increment      1: Step Time =    1.000,"RIGHTSIDE1-1",            10,             1,  -686.463E-03,       1.27104,            0.,"ASSEMBLY_RIGHTSIDE1-1_SET-5","A36","",   770.360E-06,   770.360E-06,   25.1514E+03,   21.0844E+03
C:/temp/newjob.odb,Step-1,Increment      1: Step Time =    1.000,"RIGHTSIDE1-1",            10,             2,  -637.469E-03,       1.21538,            0.,"ASSEMBLY_RIGHTSIDE1-1_SET-5","A36","",   773.144E-06,   773.144E-06,   25.3641E+03,   21.0692E+03
C:/temp/newjob.odb,Step-1,Increment      1: Step Time =    1.000,"RIGHTSIDE1-1",            10,             3,  -620.377E-03,       1.31704,            0.,"ASSEMBLY_RIGHTSIDE1-1_SET-5","A36","",   832.686E-06,   832.686E-06,   26.8515E+03,   23.0507E+03
C:/temp/newjob.odb,Step-1,Increment      1: Step Time =    1.000,"RIGHTSIDE1-1",            10,             4,  -553.498E-03,       1.27144,            0.,"ASSEMBLY_RIGHTSIDE1-1_SET-5","A36","",   823.690E-06,   823.690E-06,   26.7392E+03,   22.6617E+03
C:/temp/newjob.odb,Step-1,Increment      1: Step Time =    1.000,"RIGHTSIDE1-1",            11,             1,  -857.516E-03,       1.12748,            0.,"ASSEMBLY_RIGHTSIDE1-1_SET-5","A36","",   241.689E-06,  -444.381E-06,   14.3827E+03,   3.57279E+03
C:/temp/newjob.odb,Step-1,Increment      1: Step Time =    1.000,"RIGHTSIDE1-1",            11,             2,  -882.736E-03,       1.17379,            0.,"ASSEMBLY_RIGHTSIDE1-1_SET-5","A36","",   250.440E-06,  -441.960E-06,   14.4335E+03,   3.88524E+03
C:/temp/newjob.odb,Step-1,Increment      1: Step Time =    1.000,"RIGHTSIDE1-1",            11,             3,  -951.402E-03,       1.09859,            0.,"ASSEMBLY_RIGHTSIDE1-1_SET-5","A36","",   269.446E-06,  -747.414E-06,   22.7572E+03,   1.49083E+03
C:/temp/newjob.odb,Step-1,Increment      1: Step Time =    1.000,"RIGHTSIDE1-1",            11,             4,  -970.727E-03,       1.13893,            0.,"ASSEMBLY_RIGHTSIDE1-1_SET-5","A36","",   282.342E-06,  -755.164E-06,   23.0778E+03,   1.83932E+03
C:/temp/newjob.odb,Step-1,Increment      1: Step Time =    1.000,"RIGHTSIDE1-1",            12,             1,  -830.283E-03,       1.35634,            0.,"ASSEMBLY_RIGHTSIDE1-1_SET-5","A36","",   1.00712E-03,   1.00712E-03,   33.7876E+03,   26.9115E+03
C:/temp/newjob.odb,Step-1,Increment      1: Step Time =    1.000,"RIGHTSIDE1-1",            12,             2,  -873.805E-03,       1.39013,            0.,"ASSEMBLY_RIGHTSIDE1-1_SET-5","A36","",   1.04205E-03,   1.04205E-03,   34.2165E+03,   28.3746E+03
C:/temp/newjob.odb,Step-1,Increment      1: Step Time =    1.000,"RIGHTSIDE1-1",            12,             3,  -899.479E-03,       1.31200,            0.,"ASSEMBLY_RIGHTSIDE1-1_SET-5","A36","",   952.195E-06,   952.195E-06,   32.4675E+03,   25.0931E+03
C:/temp/newjob.odb,Step-1,Increment      1: Step Time =    1.000,"RIGHTSIDE1-1",            12,             4,  -936.212E-03,       1.35184,            0.,"ASSEMBLY_RIGHTSIDE1-1_SET-5","A36","",   982.763E-06,   982.763E-06,   32.8183E+03,   26.3660E+03
C:/temp/newjob.odb,Step-1,Increment      1: Step Time =    1.000,"RIGHTSIDE1-1",            13,             1,      -1.13256,       1.34534,            0.,"ASSEMBLY_RIGHTSIDE1-1_SET-5","A36","",   1.19653E-03,   1.19653E-03,   36.3126E+03,   35.3263E+03
C:/temp/newjob.odb,Step-1,Increment      1: Step Time =    1.000,"RIGHTSIDE1-1",            13,             2,      -1.07216,       1.41498,            0.,"ASSEMBLY_RIGHTSIDE1-1_SET-5","A36","",   1.32883E-03,   1.32883E-03,   40.2918E+03,   39.2782E+03
C:/temp/newjob.odb,Step-1,Increment      1: Step Time =    1.000,"RIGHTSIDE1-1",            13,             3,      -1.17124,       1.36687,            0.,"ASSEMBLY_RIGHTSIDE1-1_SET-5","A36","",   1.18613E-03,   1.18613E-03,   36.4006E+03,   34.5444E+03
C:/temp/newjob.odb,Step-1,Increment      1: Step Time =    1.000,"RIGHTSIDE1-1",            13,             4,      -1.12653,       1.42487,            0.,"ASSEMBLY_RIGHTSIDE1-1_SET-5","A36","",   1.34897E-03,   1.34897E-03,   41.2479E+03,   39.4568E+03
C:/temp/newjob.odb,Step-1,Increment      1: Step Time =    1.000,"RIGHTSIDE1-1",            14,             1,      -1.27678,       1.63494,            0.,"ASSEMBLY_RIGHTSIDE1-1_SET-5","A36","",   1.86366E-03,   1.86366E-03,   55.8394E+03,   56.0164E+03
C:/temp/newjob.odb,Step-1,Increment      1: Step Time =    1.000,"RIGHTSIDE1-1",            14,             2,      -1.27130,       1.56347,            0.,"ASSEMBLY_RIGHTSIDE1-1_SET-5","A36","",   1.91664E-03,   1.91664E-03,   57.4117E+03,   57.6326E+03
C:/temp/newjob.odb,Step-1,Increment      1: Step Time =    1.000,"RIGHTSIDE1-1",            14,             3,      -1.19919,       1.65213,            0.,"ASSEMBLY_RIGHTSIDE1-1_SET-5","A36","",   1.88455E-03,   1.88455E-03,   56.8087E+03,   56.1447E+03
C:/temp/newjob.odb,Step-1,Increment      1: Step Time =    1.000,"RIGHTSIDE1-1",            14,             4,      -1.20068,       1.56527,            0.,"ASSEMBLY_RIGHTSIDE1-1_SET-5","A36","",   1.93023E-03,   1.93023E-03,   58.1973E+03,   57.4899E+03
C:/temp/newjob.odb,Step-1,Increment      1: Step Time =    1.000,"RIGHTSIDE1-1",            15,             1,       1.21701,   931.429E-03,            0.,"ASSEMBLY_RIGHTSIDE1-1_SET-5","A36","",   821.875E-06,   821.875E-06,   24.5169E+03,   24.8779E+03
C:/temp/newjob.odb,Step-1,Increment      1: Step Time =    1.000,"RIGHTSIDE1-1",            15,             2,       1.39453,   931.655E-03,            0.,"ASSEMBLY_RIGHTSIDE1-1_SET-5","A36","",   824.427E-06,   824.427E-06,   24.6401E+03,   24.8771E+03
C:/temp/newjob.odb,Step-1,Increment      1: Step Time =    1.000,"RIGHTSIDE1-1",            15,             3,       1.20089,       1.12304,            0.,"ASSEMBLY_RIGHTSIDE1-1_SET-5","A36","",   824.484E-06,   824.484E-06,   24.5965E+03,   24.9537E+03
C:/temp/newjob.odb,Step-1,Increment      1: Step Time =    1.000,"RIGHTSIDE1-1",            15,             4,       1.39021,       1.12388,            0.,"ASSEMBLY_RIGHTSIDE1-1_SET-5","A36","",   826.869E-06,   826.869E-06,   24.7119E+03,   24.9528E+03
C:/temp/newjob.odb,Step-1,Increment      1: Step Time =    1.000,"RIGHTSIDE1-1",            16,             1,       1.03622,       1.62445,            0.,"ASSEMBLY_RIGHTSIDE1-1_SET-5","A36","",   846.827E-06,   846.827E-06,   25.3719E+03,   25.4548E+03
C:/temp/newjob.odb,Step-1,Increment      1: Step Time =    1.000,"RIGHTSIDE1-1",            16,             2,       1.08006,       1.79783,            0.,"ASSEMBLY_RIGHTSIDE1-1_SET-5","A36","",   835.519E-06,   835.519E-06,   25.0402E+03,   25.1040E+03
C:/temp/newjob.odb,Step-1,Increment      1: Step Time =    1.000,"RIGHTSIDE1-1",            16,             3,   900.286E-03,       1.69854,            0.,"ASSEMBLY_RIGHTSIDE1-1_SET-5","A36","",   850.717E-06,   850.717E-06,   25.5099E+03,   25.5391E+03
C:/temp/newjob.odb,Step-1,Increment      1: Step Time =    1.000,"RIGHTSIDE1-1",            16,             4,   916.845E-03,       1.81768,            0.,"ASSEMBLY_RIGHTSIDE1-1_SET-5","A36","",   833.564E-06,   833.564E-06,   25.0040E+03,   25.0114E+03
C:/temp/newjob.odb,Step-1,Increment      1: Step Time =    1.000,"RIGHTSIDE1-1",            17,             1,       1.06427,       1.11602,            0.,"ASSEMBLY_RIGHTSIDE1-1_SET-5","A36","",   810.837E-06,   810.837E-06,   24.1596E+03,   24.5918E+03
C:/temp/newjob.odb,Step-1,Increment      1: Step Time =    1.000,"RIGHTSIDE1-1",            17,             2,   880.337E-03,       1.09768,            0.,"ASSEMBLY_RIGHTSIDE1-1_SET-5","A36","",   805.800E-06,   805.800E-06,   23.9163E+03,   24.6103E+03
C:/temp/newjob.odb,Step-1,Increment      1: Step Time =    1.000,"RIGHTSIDE1-1",            17,             3,       1.08758,   929.548E-03,            0.,"ASSEMBLY_RIGHTSIDE1-1_SET-5","A36","",   808.244E-06,   808.244E-06,   24.0846E+03,   24.5091E+03
C:/temp/newjob.odb,Step-1,Increment      1: Step Time =    1.000,"RIGHTSIDE1-1",            17,             4,   911.500E-03,   924.634E-03,            0.,"ASSEMBLY_RIGHTSIDE1-1_SET-5","A36","",   802.721E-06,   802.721E-06,   23.8217E+03,   24.5225E+03
C:/temp/newjob.odb,Step-1,Increment      1: Step Time =    1.000,"RIGHTSIDE1-1",            18,             1,   456.195E-03,       1.43045,            0.,"ASSEMBLY_RIGHTSIDE1-1_SET-5","A36","",   848.170E-06,   848.170E-06,   25.2176E+03,   25.8215E+03
C:/temp/newjob.odb,Step-1,Increment      1: Step Time =    1.000,"RIGHTSIDE1-1",            18,             2,   628.546E-03,       1.45255,            0.,"ASSEMBLY_RIGHTSIDE1-1_SET-5","A36","",   847.905E-06,   847.905E-06,   25.3505E+03,   25.5715E+03
C:/temp/newjob.odb,Step-1,Increment      1: Step Time =    1.000,"RIGHTSIDE1-1",            18,             3,   398.784E-03,       1.57014,            0.,"ASSEMBLY_RIGHTSIDE1-1_SET-5","A36","",   890.645E-06,   890.645E-06,   26.4803E+03,   27.1150E+03
C:/temp/newjob.odb,Step-1,Increment      1: Step Time =    1.000,"RIGHTSIDE1-1",            18,             4,   568.767E-03,       1.58701,            0.,"ASSEMBLY_RIGHTSIDE1-1_SET-5","A36","",   892.271E-06,   892.271E-06,   26.6746E+03,   26.9133E+03
C:/temp/newjob.odb,Step-1,Increment      1: Step Time =    1.000,"RIGHTSIDE1-1",            19,             1,  -280.509E-03,       1.67831,            0.,"ASSEMBLY_RIGHTSIDE1-1_SET-5","A36","",   1.17295E-03,   1.17295E-03,    35.336E+03,   34.9756E+03
C:/temp/newjob.odb,Step-1,Increment      1: Step Time =    1.000,"RIGHTSIDE1-1",            19,             2,  -93.2066E-03,       1.64306,            0.,"ASSEMBLY_RIGHTSIDE1-1_SET-5","A36","",   1.16884E-03,   1.16884E-03,   34.9144E+03,   35.3015E+03
C:/temp/newjob.odb,Step-1,Increment      1: Step Time =    1.000,"RIGHTSIDE1-1",            19,             3,  -278.009E-03,       1.81227,            0.,"ASSEMBLY_RIGHTSIDE1-1_SET-5","A36","",   1.30691E-03,   1.30691E-03,   39.3620E+03,   38.9835E+03
C:/temp/newjob.odb,Step-1,Increment      1: Step Time =    1.000,"RIGHTSIDE1-1",            19,             4,  -101.027E-03,       1.80282,            0.,"ASSEMBLY_RIGHTSIDE1-1_SET-5","A36","",   1.28140E-03,   1.28140E-03,   38.2823E+03,   38.6920E+03
C:/temp/newjob.odb,Step-1,Increment      1: Step Time =    1.000,"RIGHTSIDE1-1",            20,             1,  -751.344E-03,       1.05352,            0.,"ASSEMBLY_RIGHTSIDE1-1_SET-5","A36","",   357.565E-06,  -495.104E-06,   17.2938E+03,   6.89124E+03
C:/temp/newjob.odb,Step-1,Increment      1: Step Time =    1.000,"RIGHTSIDE1-1",            20,             2,  -648.693E-03,       1.06504,            0.,"ASSEMBLY_RIGHTSIDE1-1_SET-5","A36","",   418.504E-06,   418.504E-06,   16.4353E+03,   9.80406E+03
C:/temp/newjob.odb,Step-1,Increment      1: Step Time =    1.000,"RIGHTSIDE1-1",            20,             3,  -771.752E-03,       1.11058,            0.,"ASSEMBLY_RIGHTSIDE1-1_SET-5","A36","",   408.795E-06,  -500.107E-06,   18.2697E+03,   8.53065E+03
C:/temp/newjob.odb,Step-1,Increment      1: Step Time =    1.000,"RIGHTSIDE1-1",            20,             4,  -676.427E-03,       1.13600,            0.,"ASSEMBLY_RIGHTSIDE1-1_SET-5","A36","",   450.625E-06,   450.625E-06,   16.9646E+03,   10.9371E+03
C:/temp/newjob.odb,Step-1,Increment      1: Step Time =    1.000,"RIGHTSIDE1-1",            21,             1,       1.38057,       1.59818,            0.,"ASSEMBLY_RIGHTSIDE1-1_SET-5","A36","",   835.620E-06,   835.620E-06,   25.0573E+03,   25.0856E+03
C:/temp/newjob.odb,Step-1,Increment      1: Step Time =    1.000,"RIGHTSIDE1-1",            21,             2,       1.39195,       1.79079,            0.,"ASSEMBLY_RIGHTSIDE1-1_SET-5","A36","",   833.756E-06,   833.756E-06,   25.0008E+03,   25.0305E+03
C:/temp/newjob.odb,Step-1,Increment      1: Step Time =    1.000,"RIGHTSIDE1-1",            21,             3,       1.16492,       1.59756,            0.,"ASSEMBLY_RIGHTSIDE1-1_SET-5","A36","",   835.937E-06,   835.937E-06,   25.0736E+03,   25.0849E+03
C:/temp/newjob.odb,Step-1,Increment      1: Step Time =    1.000,"RIGHTSIDE1-1",            21,             4,       1.20737,       1.79063,            0.,"ASSEMBLY_RIGHTSIDE1-1_SET-5","A36","",   834.131E-06,   834.131E-06,   25.0200E+03,   25.0298E+03
C:/temp/newjob.odb,Step-1,Increment      1: Step Time =    1.000,"RIGHTSIDE1-1",            22,             1,   805.348E-03,       1.37814,            0.,"ASSEMBLY_RIGHTSIDE1-1_SET-5","A36","",   831.324E-06,   831.324E-06,   24.7319E+03,   25.2809E+03
C:/temp/newjob.odb,Step-1,Increment      1: Step Time =    1.000,"RIGHTSIDE1-1",            22,             2,   851.894E-03,       1.21919,            0.,"ASSEMBLY_RIGHTSIDE1-1_SET-5","A36","",   818.669E-06,   818.669E-06,   24.3530E+03,   24.9004E+03
C:/temp/newjob.odb,Step-1,Increment      1: Step Time =    1.000,"RIGHTSIDE1-1",            22,             3,       1.00531,       1.43518,            0.,"ASSEMBLY_RIGHTSIDE1-1_SET-5","A36","",   835.189E-06,   835.189E-06,   24.9554E+03,   25.2122E+03
C:/temp/newjob.odb,Step-1,Increment      1: Step Time =    1.000,"RIGHTSIDE1-1",            22,             4,       1.04222,       1.25150,            0.,"ASSEMBLY_RIGHTSIDE1-1_SET-5","A36","",   824.303E-06,   824.303E-06,   24.6375E+03,   24.8715E+03
C:/temp/newjob.odb,Step-1,Increment      1: Step Time =    1.000,"RIGHTSIDE1-1",            23,             1,      -1.25990,       1.42730,            0.,"ASSEMBLY_RIGHTSIDE1-1_SET-5","A36","",   2.38601E-03,   2.38601E-03,   70.7917E+03,   72.9220E+03
C:/temp/newjob.odb,Step-1,Increment      1: Step Time =    1.000,"RIGHTSIDE1-1",            23,             2,      -1.21695,       1.50503,            0.,"ASSEMBLY_RIGHTSIDE1-1_SET-5","A36","",   2.00551E-03,   2.00551E-03,   59.4483E+03,   61.4015E+03
C:/temp/newjob.odb,Step-1,Increment      1: Step Time =    1.000,"RIGHTSIDE1-1",            23,             3,      -1.30437,       1.44165,            0.,"ASSEMBLY_RIGHTSIDE1-1_SET-5","A36","",   2.44085E-03,   2.44085E-03,   73.0038E+03,   73.5683E+03
C:/temp/newjob.odb,Step-1,Increment      1: Step Time =    1.000,"RIGHTSIDE1-1",            23,             4,      -1.27869,       1.51167,            0.,"ASSEMBLY_RIGHTSIDE1-1_SET-5","A36","",   1.99798E-03,   1.99798E-03,   59.6546E+03,   60.3881E+03
C:/temp/newjob.odb,Step-1,Increment      1: Step Time =    1.000,"RIGHTSIDE1-1",            24,             1,      -1.10735,       1.32511,            0.,"ASSEMBLY_RIGHTSIDE1-1_SET-5","A36","",   840.854E-06,   840.854E-06,   26.3165E+03,   23.9672E+03
C:/temp/newjob.odb,Step-1,Increment      1: Step Time =    1.000,"RIGHTSIDE1-1",            24,             2,      -1.07713,       1.29139,            0.,"ASSEMBLY_RIGHTSIDE1-1_SET-5","A36","",   836.860E-06,   836.860E-06,   26.4259E+03,   23.6383E+03
C:/temp/newjob.odb,Step-1,Increment      1: Step Time =    1.000,"RIGHTSIDE1-1",            24,             3,      -1.04056,       1.39487,            0.,"ASSEMBLY_RIGHTSIDE1-1_SET-5","A36","",   848.342E-06,   848.342E-06,   26.4942E+03,   24.2346E+03
C:/temp/newjob.odb,Step-1,Increment      1: Step Time =    1.000,"RIGHTSIDE1-1",            24,             4,      -1.00860,       1.34983,            0.,"ASSEMBLY_RIGHTSIDE1-1_SET-5","A36","",   845.791E-06,   845.791E-06,   26.6019E+03,   23.9863E+03
C:/temp/newjob.odb,Step-1,Increment      1: Step Time =    1.000,"RIGHTSIDE1-1",            25,             1,   44.7940E-03,       1.63808,            0.,"ASSEMBLY_RIGHTSIDE1-1_SET-5","A36","",   985.759E-06,   985.759E-06,   29.5641E+03,   29.5859E+03
C:/temp/newjob.odb,Step-1,Increment      1: Step Time =    1.000,"RIGHTSIDE1-1",            25,             2,   234.516E-03,       1.65974,            0.,"ASSEMBLY_RIGHTSIDE1-1_SET-5","A36","",   977.311E-06,   977.311E-06,   29.2365E+03,   29.4470E+03
C:/temp/newjob.odb,Step-1,Increment      1: Step Time =    1.000,"RIGHTSIDE1-1",            25,             3,   28.7706E-03,       1.80149,            0.,"ASSEMBLY_RIGHTSIDE1-1_SET-5","A36","",   1.09130E-03,   1.09130E-03,   32.7196E+03,   32.7680E+03
C:/temp/newjob.odb,Step-1,Increment      1: Step Time =    1.000,"RIGHTSIDE1-1",            25,             4,   206.401E-03,       1.80729,            0.,"ASSEMBLY_RIGHTSIDE1-1_SET-5","A36","",   1.09299E-03,   1.09299E-03,   32.6888E+03,   32.9456E+03
C:/temp/newjob.odb,Step-1,Increment      1: Step Time =    1.000,"RIGHTSIDE1-1",            26,             1,   169.743E-03,       1.38236,            0.,"ASSEMBLY_RIGHTSIDE1-1_SET-5","A36","",   862.926E-06,   862.926E-06,   25.5981E+03,   26.3821E+03
C:/temp/newjob.odb,Step-1,Increment      1: Step Time =    1.000,"RIGHTSIDE1-1",            26,             2,   333.259E-03,       1.41164,            0.,"ASSEMBLY_RIGHTSIDE1-1_SET-5","A36","",   849.807E-06,   849.807E-06,   25.4077E+03,   25.6285E+03
C:/temp/newjob.odb,Step-1,Increment      1: Step Time =    1.000,"RIGHTSIDE1-1",            26,             3,   82.5674E-03,       1.52578,            0.,"ASSEMBLY_RIGHTSIDE1-1_SET-5","A36","",   943.533E-06,   943.533E-06,   27.9772E+03,   28.8703E+03
C:/temp/newjob.odb,Step-1,Increment      1: Step Time =    1.000,"RIGHTSIDE1-1",            26,             4,   268.508E-03,       1.55373,            0.,"ASSEMBLY_RIGHTSIDE1-1_SET-5","A36","",   936.678E-06,   936.678E-06,   27.9550E+03,   28.3303E+03
C:/temp/newjob.odb,Step-1,Increment      1: Step Time =    1.000,"RIGHTSIDE1-1",            27,             1,   797.243E-03,       1.71772,            0.,"ASSEMBLY_RIGHTSIDE1-1_SET-5","A36","",   863.143E-06,   863.143E-06,   25.8755E+03,   25.9226E+03
C:/temp/newjob.odb,Step-1,Increment      1: Step Time =    1.000,"RIGHTSIDE1-1",            27,             2,   796.414E-03,       1.82282,            0.,"ASSEMBLY_RIGHTSIDE1-1_SET-5","A36","",   866.958E-06,   866.958E-06,   25.9898E+03,   26.0373E+03
C:/temp/newjob.odb,Step-1,Increment      1: Step Time =    1.000,"RIGHTSIDE1-1",            27,             3,   651.660E-03,       1.69604,            0.,"ASSEMBLY_RIGHTSIDE1-1_SET-5","A36","",   863.493E-06,   863.493E-06,   25.8876E+03,   25.9308E+03
C:/temp/newjob.odb,Step-1,Increment      1: Step Time =    1.000,"RIGHTSIDE1-1",            27,             4,   630.610E-03,       1.81702,            0.,"ASSEMBLY_RIGHTSIDE1-1_SET-5","A36","",   866.752E-06,   866.752E-06,   25.9850E+03,   26.0290E+03
C:/temp/newjob.odb,Step-1,Increment      1: Step Time =    1.000,"RIGHTSIDE1-1",            28,             1,      -1.49378,       1.64021,            0.,"ASSEMBLY_RIGHTSIDE1-1_SET-5","A36","",   2.00712E-03,   2.00712E-03,   58.9519E+03,   62.8413E+03
C:/temp/newjob.odb,Step-1,Increment      1: Step Time =    1.000,"RIGHTSIDE1-1",            28,             2,      -1.52798,       1.64533,            0.,"ASSEMBLY_RIGHTSIDE1-1_SET-5","A36","",   2.01462E-03,   2.01462E-03,   59.1093E+03,   63.3062E+03
C:/temp/newjob.odb,Step-1,Increment      1: Step Time =    1.000,"RIGHTSIDE1-1",            28,             3,      -1.48770,       1.60782,            0.,"ASSEMBLY_RIGHTSIDE1-1_SET-5","A36","",   2.23914E-03,   2.23914E-03,   65.8498E+03,   69.8354E+03
C:/temp/newjob.odb,Step-1,Increment      1: Step Time =    1.000,"RIGHTSIDE1-1",            28,             4,      -1.52635,       1.60848,            0.,"ASSEMBLY_RIGHTSIDE1-1_SET-5","A36","",   2.21720E-03,   2.21720E-03,   65.1324E+03,   69.3838E+03
C:/temp/newjob.odb,Step-1,Increment      1: Step Time =    1.000,"RIGHTSIDE1-1",            29,             1,  -825.596E-03,       1.04301,            0.,"ASSEMBLY_RIGHTSIDE1-1_SET-5","A36","",   148.103E-06,  -505.993E-06,   15.1558E+03,      -121.816
C:/temp/newjob.odb,Step-1,Increment      1: Step Time =    1.000,"RIGHTSIDE1-1",            29,             2,  -842.206E-03,       1.09243,            0.,"ASSEMBLY_RIGHTSIDE1-1_SET-5","A36","",   172.804E-06,  -511.477E-06,   15.4818E+03,       638.277
C:/temp/newjob.odb,Step-1,Increment      1: Step Time =    1.000,"RIGHTSIDE1-1",            29,             3,  -925.803E-03,       1.02580,            0.,"ASSEMBLY_RIGHTSIDE1-1_SET-5","A36","",   237.520E-06,  -867.118E-06,   25.8725E+03,      -745.552
C:/temp/newjob.odb,Step-1,Increment      1: Step Time =    1.000,"RIGHTSIDE1-1",            29,             4,  -939.364E-03,       1.06828,            0.,"ASSEMBLY_RIGHTSIDE1-1_SET-5","A36","",   268.175E-06,  -877.481E-06,   26.3573E+03,       162.548
C:/temp/newjob.odb,Step-1,Increment      1: Step Time =    1.000,"RIGHTSIDE1-1",            30,             1,      -1.37885,       1.45951,            0.,"ASSEMBLY_RIGHTSIDE1-1_SET-5","A36","",   3.07122E-03,   3.07122E-03,   91.8987E+03,   92.5028E+03
C:/temp/newjob.odb,Step-1,Increment      1: Step Time =    1.000,"RIGHTSIDE1-1",            30,             2,      -1.33624,       1.45028,            0.,"ASSEMBLY_RIGHTSIDE1-1_SET-5","A36","",   3.01504E-03,   3.01504E-03,   89.8536E+03,   91.4116E+03
C:/temp/newjob.odb,Step-1,Increment      1: Step Time =    1.000,"RIGHTSIDE1-1",            30,             3,      -1.36946,       1.51471,            0.,"ASSEMBLY_RIGHTSIDE1-1_SET-5","A36","",   2.56732E-03,   2.56732E-03,   76.7726E+03,   77.4018E+03
C:/temp/newjob.odb,Step-1,Increment      1: Step Time =    1.000,"RIGHTSIDE1-1",            30,             4,      -1.31956,       1.51427,            0.,"ASSEMBLY_RIGHTSIDE1-1_SET-5","A36","",   2.58623E-03,   2.58623E-03,   77.0219E+03,   78.5024E+03
C:/temp/newjob.odb,Step-1,Increment      1: Step Time =    1.000,"RIGHTSIDE1-1",            31,             1,      -1.00974,       1.20494,            0.,"ASSEMBLY_RIGHTSIDE1-1_SET-5","A36","",   326.221E-06,  -579.224E-06,   18.8902E+03,   5.02595E+03
C:/temp/newjob.odb,Step-1,Increment      1: Step Time =    1.000,"RIGHTSIDE1-1",            31,             2,  -986.358E-03,       1.16742,            0.,"ASSEMBLY_RIGHTSIDE1-1_SET-5","A36","",   310.814E-06,  -575.279E-06,   18.5934E+03,   4.55704E+03
C:/temp/newjob.odb,Step-1,Increment      1: Step Time =    1.000,"RIGHTSIDE1-1",            31,             3,  -930.384E-03,       1.24840,            0.,"ASSEMBLY_RIGHTSIDE1-1_SET-5","A36","",   368.840E-06,  -389.029E-06,   15.1524E+03,   8.31204E+03
C:/temp/newjob.odb,Step-1,Increment      1: Step Time =    1.000,"RIGHTSIDE1-1",            31,             4,  -902.261E-03,       1.20619,            0.,"ASSEMBLY_RIGHTSIDE1-1_SET-5","A36","",   359.167E-06,  -392.825E-06,   15.0460E+03,   7.95558E+03
C:/temp/newjob.odb,Step-1,Increment      1: Step Time =    1.000,"RIGHTSIDE1-1",            32,             1,      -1.05597,       1.26628,            0.,"ASSEMBLY_RIGHTSIDE1-1_SET-5","A36","",   491.231E-06,   491.231E-06,   18.2891E+03,   12.0329E+03
C:/temp/newjob.odb,Step-1,Increment      1: Step Time =    1.000,"RIGHTSIDE1-1",            32,             2,      -1.02839,       1.23143,            0.,"ASSEMBLY_RIGHTSIDE1-1_SET-5","A36","",   465.574E-06,   465.574E-06,   17.9435E+03,   11.0808E+03
C:/temp/newjob.odb,Step-1,Increment      1: Step Time =    1.000,"RIGHTSIDE1-1",            32,             3,  -985.024E-03,       1.31865,            0.,"ASSEMBLY_RIGHTSIDE1-1_SET-5","A36","",   566.789E-06,   566.789E-06,   19.0101E+03,   15.1486E+03
C:/temp/newjob.odb,Step-1,Increment      1: Step Time =    1.000,"RIGHTSIDE1-1",            32,             4,  -952.561E-03,       1.27853,            0.,"ASSEMBLY_RIGHTSIDE1-1_SET-5","A36","",   552.591E-06,   552.591E-06,   18.9330E+03,   14.5031E+03
C:/temp/newjob.odb,Step-1,Increment      1: Step Time =    1.000,"RIGHTSIDE1-1",            33,             1,      -1.42069,       1.68561,            0.,"ASSEMBLY_RIGHTSIDE1-1_SET-5","A36","",   1.70950E-03,   1.70950E-03,   50.5986E+03,   52.4958E+03
C:/temp/newjob.odb,Step-1,Increment      1: Step Time =    1.000,"RIGHTSIDE1-1",            33,             2,      -1.39058,       1.64076,            0.,"ASSEMBLY_RIGHTSIDE1-1_SET-5","A36","",   1.81507E-03,   1.81507E-03,   53.6401E+03,   55.9221E+03
C:/temp/newjob.odb,Step-1,Increment      1: Step Time =    1.000,"RIGHTSIDE1-1",            33,             3,      -1.37873,       1.71855,            0.,"ASSEMBLY_RIGHTSIDE1-1_SET-5","A36","",   1.71650E-03,   1.71650E-03,   51.4993E+03,   51.4887E+03
C:/temp/newjob.odb,Step-1,Increment      1: Step Time =    1.000,"RIGHTSIDE1-1",            33,             4,      -1.34106,       1.66481,            0.,"ASSEMBLY_RIGHTSIDE1-1_SET-5","A36","",   1.80885E-03,   1.80885E-03,   54.1386E+03,   54.4607E+03
C:/temp/newjob.odb,Step-1,Increment      1: Step Time =    1.000,"RIGHTSIDE1-1",            34,             1,      -1.25460,       1.80551,            0.,"ASSEMBLY_RIGHTSIDE1-1_SET-5","A36","",   1.38187E-03,   1.38187E-03,   41.7567E+03,   41.0322E+03
C:/temp/newjob.odb,Step-1,Increment      1: Step Time =    1.000,"RIGHTSIDE1-1",            34,             2,      -1.33422,       1.75068,            0.,"ASSEMBLY_RIGHTSIDE1-1_SET-5","A36","",   1.34897E-03,   1.34897E-03,   40.8191E+03,   39.9807E+03
C:/temp/newjob.odb,Step-1,Increment      1: Step Time =    1.000,"RIGHTSIDE1-1",            34,             3,      -1.21364,       1.71651,            0.,"ASSEMBLY_RIGHTSIDE1-1_SET-5","A36","",   1.63789E-03,   1.63789E-03,   49.1600E+03,   49.1016E+03
C:/temp/newjob.odb,Step-1,Increment      1: Step Time =    1.000,"RIGHTSIDE1-1",            34,             4,      -1.29364,       1.68510,            0.,"ASSEMBLY_RIGHTSIDE1-1_SET-5","A36","",   1.67386E-03,   1.67386E-03,   50.2108E+03,   50.2233E+03
C:/temp/newjob.odb,Step-1,Increment      1: Step Time =    1.000,"RIGHTSIDE1-1",            35,             1,      -1.14082,       1.51597,            0.,"ASSEMBLY_RIGHTSIDE1-1_SET-5","A36","",   1.73828E-03,   1.73828E-03,   52.6743E+03,   51.4224E+03
C:/temp/newjob.odb,Step-1,Increment      1: Step Time =    1.000,"RIGHTSIDE1-1",            35,             2,      -1.11838,       1.46482,            0.,"ASSEMBLY_RIGHTSIDE1-1_SET-5","A36","",   1.43497E-03,   1.43497E-03,   43.4982E+03,   42.4305E+03
C:/temp/newjob.odb,Step-1,Increment      1: Step Time =    1.000,"RIGHTSIDE1-1",            35,             3,      -1.06934,       1.52040,            0.,"ASSEMBLY_RIGHTSIDE1-1_SET-5","A36","",   1.74474E-03,   1.74474E-03,   54.1620E+03,   50.1628E+03
C:/temp/newjob.odb,Step-1,Increment      1: Step Time =    1.000,"RIGHTSIDE1-1",            35,             4,      -1.05522,       1.46189,            0.,"ASSEMBLY_RIGHTSIDE1-1_SET-5","A36","",   1.48148E-03,   1.48148E-03,   46.4654E+03,   42.1343E+03
C:/temp/newjob.odb,Step-1,Increment      1: Step Time =    1.000,"RIGHTSIDE1-1",            36,             1,  -874.647E-03,       1.28094,            0.,"ASSEMBLY_RIGHTSIDE1-1_SET-5","A36","",   794.871E-06,   794.871E-06,   28.1189E+03,   20.3116E+03
C:/temp/newjob.odb,Step-1,Increment      1: Step Time =    1.000,"RIGHTSIDE1-1",            36,             2,  -843.541E-03,       1.23592,            0.,"ASSEMBLY_RIGHTSIDE1-1_SET-5","A36","",   770.822E-06,   770.822E-06,   27.8838E+03,   19.3366E+03
C:/temp/newjob.odb,Step-1,Increment      1: Step Time =    1.000,"RIGHTSIDE1-1",            36,             3,  -801.722E-03,       1.32639,            0.,"ASSEMBLY_RIGHTSIDE1-1_SET-5","A36","",   848.515E-06,   848.515E-06,   28.8549E+03,   22.4118E+03
C:/temp/newjob.odb,Step-1,Increment      1: Step Time =    1.000,"RIGHTSIDE1-1",            36,             4,  -767.214E-03,       1.27836,            0.,"ASSEMBLY_RIGHTSIDE1-1_SET-5","A36","",   829.849E-06,   829.849E-06,   28.7435E+03,   21.5815E+03
C:/temp/newjob.odb,Step-1,Increment      1: Step Time =    1.000,"RIGHTSIDE1-1",            37,             1,  -899.457E-03,       1.47599,            0.,"ASSEMBLY_RIGHTSIDE1-1_SET-5","A36","",   1.35576E-03,   1.35576E-03,   42.6894E+03,   38.4053E+03
C:/temp/newjob.odb,Step-1,Increment      1: Step Time =    1.000,"RIGHTSIDE1-1",            37,             2,  -984.856E-03,       1.43530,            0.,"ASSEMBLY_RIGHTSIDE1-1_SET-5","A36","",   1.34671E-03,   1.34671E-03,   42.3240E+03,   38.2225E+03
C:/temp/newjob.odb,Step-1,Increment      1: Step Time =    1.000,"RIGHTSIDE1-1",            37,             3,  -892.340E-03,       1.42219,            0.,"ASSEMBLY_RIGHTSIDE1-1_SET-5","A36","",   1.21358E-03,   1.21358E-03,   39.3342E+03,   33.4366E+03
C:/temp/newjob.odb,Step-1,Increment      1: Step Time =    1.000,"RIGHTSIDE1-1",            37,             4,  -959.089E-03,       1.38488,            0.,"ASSEMBLY_RIGHTSIDE1-1_SET-5","A36","",   1.21926E-03,   1.21926E-03,   39.2778E+03,   33.7835E+03
C:/temp/newjob.odb,Step-1,Increment      1: Step Time =    1.000,"RIGHTSIDE1-1",            38,             1,      -1.32435,       1.62243,            0.,"ASSEMBLY_RIGHTSIDE1-1_SET-5","A36","",   2.08201E-03,   2.08201E-03,   61.8747E+03,   63.4347E+03
C:/temp/newjob.odb,Step-1,Increment      1: Step Time =    1.000,"RIGHTSIDE1-1",            38,             2,      -1.37670,       1.60545,            0.,"ASSEMBLY_RIGHTSIDE1-1_SET-5","A36","",   2.05994E-03,   2.05994E-03,   61.0942E+03,   63.0024E+03
C:/temp/newjob.odb,Step-1,Increment      1: Step Time =    1.000,"RIGHTSIDE1-1",            38,             3,      -1.31637,       1.56039,            0.,"ASSEMBLY_RIGHTSIDE1-1_SET-5","A36","",   2.23258E-03,   2.23258E-03,   66.3584E+03,   68.0055E+03
C:/temp/newjob.odb,Step-1,Increment      1: Step Time =    1.000,"RIGHTSIDE1-1",            38,             4,      -1.36889,       1.55381,            0.,"ASSEMBLY_RIGHTSIDE1-1_SET-5","A36","",   2.23959E-03,   2.23959E-03,   66.4392E+03,   68.4635E+03
C:/temp/newjob.odb,Step-1,Increment      1: Step Time =    1.000,"RIGHTSIDE1-1",            39,             1,      -1.12589,       1.65585,            0.,"ASSEMBLY_RIGHTSIDE1-1_SET-5","A36","",   1.70533E-03,   1.70533E-03,   52.1038E+03,   49.9269E+03
C:/temp/newjob.odb,Step-1,Increment      1: Step Time =    1.000,"RIGHTSIDE1-1",            39,             2,      -1.14284,       1.56715,            0.,"ASSEMBLY_RIGHTSIDE1-1_SET-5","A36","",   1.74793E-03,   1.74793E-03,   53.2954E+03,   51.3029E+03
C:/temp/newjob.odb,Step-1,Increment      1: Step Time =    1.000,"RIGHTSIDE1-1",            39,             3,      -1.00320,       1.64883,            0.,"ASSEMBLY_RIGHTSIDE1-1_SET-5","A36","",   1.70533E-03,   1.70533E-03,   52.4760E+03,   49.5107E+03
C:/temp/newjob.odb,Step-1,Increment      1: Step Time =    1.000,"RIGHTSIDE1-1",            39,             4,      -1.05541,       1.57049,            0.,"ASSEMBLY_RIGHTSIDE1-1_SET-5","A36","",   1.75463E-03,   1.75463E-03,   54.0360E+03,   50.8957E+03
C:/temp/newjob.odb,Step-1,Increment      1: Step Time =    1.000,"RIGHTSIDE1-1",            40,             1,  -663.543E-03,   913.773E-03,            0.,"ASSEMBLY_RIGHTSIDE1-1_SET-5","A36","",   46.1309E-06,  -226.805E-06,   6.68899E+03,      -722.326
C:/temp/newjob.odb,Step-1,Increment      1: Step Time =    1.000,"RIGHTSIDE1-1",            40,             2,  -645.241E-03,       1.00550,            0.,"ASSEMBLY_RIGHTSIDE1-1_SET-5","A36","",   185.534E-06,  -266.534E-06,   9.19987E+03,   3.48045E+03
C:/temp/newjob.odb,Step-1,Increment      1: Step Time =    1.000,"RIGHTSIDE1-1",            40,             3,  -749.904E-03,   953.150E-03,            0.,"ASSEMBLY_RIGHTSIDE1-1_SET-5","A36","",   53.9939E-06,  -491.089E-06,   14.3666E+03,  -3.07691E+03
C:/temp/newjob.odb,Step-1,Increment      1: Step Time =    1.000,"RIGHTSIDE1-1",            40,             4,  -745.490E-03,       1.01134,            0.,"ASSEMBLY_RIGHTSIDE1-1_SET-5","A36","",   300.953E-06,  -550.920E-06,   17.8476E+03,   4.47287E+03
C:/temp/newjob.odb,Step-1,Increment      1: Step Time =    1.000,"RIGHTSIDE1-1",            41,             1,  -999.707E-03,       1.82245,            0.,"ASSEMBLY_RIGHTSIDE1-1_SET-5","A36","",   1.64454E-03,   1.64454E-03,   49.7991E+03,   48.6935E+03
C:/temp/newjob.odb,Step-1,Increment      1: Step Time =    1.000,"RIGHTSIDE1-1",            41,             2,      -1.16496,       1.82474,            0.,"ASSEMBLY_RIGHTSIDE1-1_SET-5","A36","",   1.64000E-03,   1.64000E-03,   49.5874E+03,   48.6564E+03
C:/temp/newjob.odb,Step-1,Increment      1: Step Time =    1.000,"RIGHTSIDE1-1",            41,             3,  -988.280E-03,       1.71634,            0.,"ASSEMBLY_RIGHTSIDE1-1_SET-5","A36","",   1.68498E-03,   1.68498E-03,   51.0141E+03,   49.9035E+03
C:/temp/newjob.odb,Step-1,Increment      1: Step Time =    1.000,"RIGHTSIDE1-1",            41,             4,      -1.13182,       1.72487,            0.,"ASSEMBLY_RIGHTSIDE1-1_SET-5","A36","",   1.68281E-03,   1.68281E-03,   50.8610E+03,   49.9536E+03
C:/temp/newjob.odb,Step-1,Increment      1: Step Time =    1.000,"RIGHTSIDE1-1",            42,             1,  -269.971E-03,       1.31989,            0.,"ASSEMBLY_RIGHTSIDE1-1_SET-5","A36","",   823.328E-06,   823.328E-06,   24.6055E+03,   24.8468E+03
C:/temp/newjob.odb,Step-1,Increment      1: Step Time =    1.000,"RIGHTSIDE1-1",            42,             2,  -385.757E-03,       1.38561,            0.,"ASSEMBLY_RIGHTSIDE1-1_SET-5","A36","",   853.623E-06,   853.623E-06,   25.9662E+03,   25.1281E+03
C:/temp/newjob.odb,Step-1,Increment      1: Step Time =    1.000,"RIGHTSIDE1-1",            42,             3,  -342.656E-03,       1.19104,            0.,"ASSEMBLY_RIGHTSIDE1-1_SET-5","A36","",   737.676E-06,   737.676E-06,   22.0720E+03,   22.2200E+03
C:/temp/newjob.odb,Step-1,Increment      1: Step Time =    1.000,"RIGHTSIDE1-1",            42,             4,  -441.539E-03,       1.27978,            0.,"ASSEMBLY_RIGHTSIDE1-1_SET-5","A36","",   746.874E-06,   746.874E-06,   22.8411E+03,   21.8414E+03
C:/temp/newjob.odb,Step-1,Increment      1: Step Time =    1.000,"RIGHTSIDE1-1",            43,             1,  -701.994E-03,       1.63625,            0.,"ASSEMBLY_RIGHTSIDE1-1_SET-5","A36","",   1.47331E-03,   1.47331E-03,   44.9802E+03,   43.1738E+03
C:/temp/newjob.odb,Step-1,Increment      1: Step Time =    1.000,"RIGHTSIDE1-1",            43,             2,  -861.942E-03,       1.63840,            0.,"ASSEMBLY_RIGHTSIDE1-1_SET-5","A36","",   1.50953E-03,   1.50953E-03,   47.0250E+03,   43.2374E+03
C:/temp/newjob.odb,Step-1,Increment      1: Step Time =    1.000,"RIGHTSIDE1-1",            43,             3,  -699.316E-03,       1.53039,            0.,"ASSEMBLY_RIGHTSIDE1-1_SET-5","A36","",   1.31742E-03,   1.31742E-03,   40.2252E+03,   38.6007E+03
C:/temp/newjob.odb,Step-1,Increment      1: Step Time =    1.000,"RIGHTSIDE1-1",            43,             4,  -833.260E-03,       1.54135,            0.,"ASSEMBLY_RIGHTSIDE1-1_SET-5","A36","",   1.34332E-03,   1.34332E-03,   42.1975E+03,   38.1443E+03
C:/temp/newjob.odb,Step-1,Increment      1: Step Time =    1.000,"RIGHTSIDE1-1",            44,             1,  -570.113E-03,   902.348E-03,            0.,"ASSEMBLY_RIGHTSIDE1-1_SET-5","A36","",   291.866E-06,   291.866E-06,   8.90744E+03,   8.55670E+03
C:/temp/newjob.odb,Step-1,Increment      1: Step Time =    1.000,"RIGHTSIDE1-1",            44,             2,  -401.220E-03,   910.509E-03,            0.,"ASSEMBLY_RIGHTSIDE1-1_SET-5","A36","",   280.776E-06,   280.776E-06,   8.24075E+03,   8.81252E+03
C:/temp/newjob.odb,Step-1,Increment      1: Step Time =    1.000,"RIGHTSIDE1-1",            44,             3,  -551.040E-03,       1.01450,            0.,"ASSEMBLY_RIGHTSIDE1-1_SET-5","A36","",   317.647E-06,   317.647E-06,   9.65004E+03,   9.36577E+03
C:/temp/newjob.odb,Step-1,Increment      1: Step Time =    1.000,"RIGHTSIDE1-1",            44,             4,  -393.929E-03,       1.04496,            0.,"ASSEMBLY_RIGHTSIDE1-1_SET-5","A36","",   298.694E-06,   298.694E-06,   8.75071E+03,   9.44334E+03
C:/temp/newjob.odb,Step-1,Increment      1: Step Time =    1.000,"RIGHTSIDE1-1",            45,             1,  -560.009E-03,       1.08503,            0.,"ASSEMBLY_RIGHTSIDE1-1_SET-5","A36","",   551.428E-06,   551.428E-06,   17.9137E+03,   15.1611E+03
C:/temp/newjob.odb,Step-1,Increment      1: Step Time =    1.000,"RIGHTSIDE1-1",            45,             2,  -420.372E-03,       1.12811,            0.,"ASSEMBLY_RIGHTSIDE1-1_SET-5","A36","",   596.436E-06,   596.436E-06,   19.0460E+03,   16.6639E+03
C:/temp/newjob.odb,Step-1,Increment      1: Step Time =    1.000,"RIGHTSIDE1-1",            45,             3,  -603.586E-03,       1.16554,            0.,"ASSEMBLY_RIGHTSIDE1-1_SET-5","A36","",   564.260E-06,   564.260E-06,   18.0114E+03,   15.7709E+03
C:/temp/newjob.odb,Step-1,Increment      1: Step Time =    1.000,"RIGHTSIDE1-1",            45,             4,  -499.906E-03,       1.22081,            0.,"ASSEMBLY_RIGHTSIDE1-1_SET-5","A36","",   611.531E-06,   611.531E-06,   19.2464E+03,   17.3314E+03
C:/temp/newjob.odb,Step-1,Increment      1: Step Time =    1.000,"RIGHTSIDE1-1",            46,             1,  -577.655E-03,       1.82068,            0.,"ASSEMBLY_RIGHTSIDE1-1_SET-5","A36","",   1.64168E-03,   1.64168E-03,   49.5570E+03,   48.8144E+03
C:/temp/newjob.odb,Step-1,Increment      1: Step Time =    1.000,"RIGHTSIDE1-1",            46,             2,  -579.188E-03,       1.70971,            0.,"ASSEMBLY_RIGHTSIDE1-1_SET-5","A36","",   1.43848E-03,   1.43848E-03,   43.4673E+03,   42.7133E+03
C:/temp/newjob.odb,Step-1,Increment      1: Step Time =    1.000,"RIGHTSIDE1-1",            46,             3,  -405.721E-03,       1.81705,            0.,"ASSEMBLY_RIGHTSIDE1-1_SET-5","A36","",   1.61681E-03,   1.61681E-03,   48.4655E+03,   48.5630E+03
C:/temp/newjob.odb,Step-1,Increment      1: Step Time =    1.000,"RIGHTSIDE1-1",            46,             4,  -410.727E-03,       1.69617,            0.,"ASSEMBLY_RIGHTSIDE1-1_SET-5","A36","",   1.43025E-03,   1.43025E-03,   42.8661E+03,   42.9703E+03
C:/temp/newjob.odb,Step-1,Increment      1: Step Time =    1.000,"RIGHTSIDE1-1",            47,             1,  -276.580E-03,   911.577E-03,            0.,"ASSEMBLY_RIGHTSIDE1-1_SET-5","A36","",   425.840E-06,   425.840E-06,   12.5138E+03,   14.1796E+03
C:/temp/newjob.odb,Step-1,Increment      1: Step Time =    1.000,"RIGHTSIDE1-1",            47,             2,  -104.949E-03,   906.334E-03,            0.,"ASSEMBLY_RIGHTSIDE1-1_SET-5","A36","",   424.625E-06,   424.625E-06,   12.4475E+03,   14.0229E+03
C:/temp/newjob.odb,Step-1,Increment      1: Step Time =    1.000,"RIGHTSIDE1-1",            47,             3,  -275.175E-03,       1.04895,            0.,"ASSEMBLY_RIGHTSIDE1-1_SET-5","A36","",   497.809E-06,   497.809E-06,   14.5766E+03,   16.3583E+03
C:/temp/newjob.odb,Step-1,Increment      1: Step Time =    1.000,"RIGHTSIDE1-1",            47,             4,  -107.844E-03,       1.02938,            0.,"ASSEMBLY_RIGHTSIDE1-1_SET-5","A36","",   505.569E-06,   505.569E-06,   14.7847E+03,   16.4678E+03
C:/temp/newjob.odb,Step-1,Increment      1: Step Time =    1.000,"RIGHTSIDE1-1",            48,             1,   4.05788E-03,       1.21731,            0.,"ASSEMBLY_RIGHTSIDE1-1_SET-5","A36","",   698.557E-06,   698.557E-06,   20.4510E+03,   22.1639E+03
C:/temp/newjob.odb,Step-1,Increment      1: Step Time =    1.000,"RIGHTSIDE1-1",            48,             2,   7.42168E-03,       1.10905,            0.,"ASSEMBLY_RIGHTSIDE1-1_SET-5","A36","",   664.691E-06,   664.691E-06,   19.4652E+03,   21.0569E+03
C:/temp/newjob.odb,Step-1,Increment      1: Step Time =    1.000,"RIGHTSIDE1-1",            48,             3,   118.871E-03,       1.25548,            0.,"ASSEMBLY_RIGHTSIDE1-1_SET-5","A36","",   700.261E-06,   700.261E-06,   20.5625E+03,   21.9425E+03
C:/temp/newjob.odb,Step-1,Increment      1: Step Time =    1.000,"RIGHTSIDE1-1",            48,             4,   151.956E-03,       1.12745,            0.,"ASSEMBLY_RIGHTSIDE1-1_SET-5","A36","",   671.623E-06,   671.623E-06,   19.7182E+03,   21.0570E+03
C:/temp/newjob.odb,Step-1,Increment      1: Step Time =    1.000,"RIGHTSIDE1-1",            49,             1,  -584.342E-03,       1.62866,            0.,"ASSEMBLY_RIGHTSIDE1-1_SET-5","A36","",   1.32469E-03,   1.32469E-03,   40.3363E+03,   38.9454E+03
C:/temp/newjob.odb,Step-1,Increment      1: Step Time =    1.000,"RIGHTSIDE1-1",            49,             2,  -596.889E-03,       1.51819,            0.,"ASSEMBLY_RIGHTSIDE1-1_SET-5","A36","",   1.14721E-03,   1.14721E-03,   35.0452E+03,   33.5936E+03
C:/temp/newjob.odb,Step-1,Increment      1: Step Time =    1.000,"RIGHTSIDE1-1",            49,             3,  -422.859E-03,       1.61010,            0.,"ASSEMBLY_RIGHTSIDE1-1_SET-5","A36","",   1.30430E-03,   1.30430E-03,   39.3507E+03,   38.8121E+03
C:/temp/newjob.odb,Step-1,Increment      1: Step Time =    1.000,"RIGHTSIDE1-1",            49,             4,  -450.996E-03,       1.49583,            0.,"ASSEMBLY_RIGHTSIDE1-1_SET-5","A36","",   1.13410E-03,   1.13410E-03,   34.2313E+03,   33.7268E+03
C:/temp/newjob.odb,Step-1,Increment      1: Step Time =    1.000,"RIGHTSIDE1-1",            50,             1,  -845.003E-03,       1.42564,            0.,"ASSEMBLY_RIGHTSIDE1-1_SET-5","A36","",   1.19205E-03,   1.19205E-03,   38.2442E+03,   33.1570E+03
C:/temp/newjob.odb,Step-1,Increment      1: Step Time =    1.000,"RIGHTSIDE1-1",            50,             2,  -782.425E-03,       1.39773,            0.,"ASSEMBLY_RIGHTSIDE1-1_SET-5","A36","",   1.20256E-03,   1.20256E-03,   38.6782E+03,   33.3707E+03
C:/temp/newjob.odb,Step-1,Increment      1: Step Time =    1.000,"RIGHTSIDE1-1",            50,             3,  -828.721E-03,       1.48434,            0.,"ASSEMBLY_RIGHTSIDE1-1_SET-5","A36","",   1.26132E-03,   1.26132E-03,   40.2965E+03,   35.2243E+03
C:/temp/newjob.odb,Step-1,Increment      1: Step Time =    1.000,"RIGHTSIDE1-1",            50,             4,  -720.868E-03,       1.46648,            0.,"ASSEMBLY_RIGHTSIDE1-1_SET-5","A36","",   1.25338E-03,   1.25338E-03,   40.1467E+03,   34.9167E+03
C:/temp/newjob.odb,Step-1,Increment      1: Step Time =    1.000,"RIGHTSIDE1-1",            51,             1,   506.841E-03,       1.81373,            0.,"ASSEMBLY_RIGHTSIDE1-1_SET-5","A36","",   937.390E-06,   937.390E-06,   28.0761E+03,   28.1912E+03
C:/temp/newjob.odb,Step-1,Increment      1: Step Time =    1.000,"RIGHTSIDE1-1",            51,             2,   334.500E-03,       1.81057,            0.,"ASSEMBLY_RIGHTSIDE1-1_SET-5","A36","",   935.480E-06,   935.480E-06,   27.9939E+03,   28.1728E+03
C:/temp/newjob.odb,Step-1,Increment      1: Step Time =    1.000,"RIGHTSIDE1-1",            51,             3,   536.156E-03,       1.68379,            0.,"ASSEMBLY_RIGHTSIDE1-1_SET-5","A36","",   908.183E-06,   908.183E-06,   27.2010E+03,   27.3133E+03
C:/temp/newjob.odb,Step-1,Increment      1: Step Time =    1.000,"RIGHTSIDE1-1",            51,             4,   366.176E-03,       1.67199,            0.,"ASSEMBLY_RIGHTSIDE1-1_SET-5","A36","",   908.102E-06,   908.102E-06,   27.1736E+03,   27.3499E+03
C:/temp/newjob.odb,Step-1,Increment      1: Step Time =    1.000,"RIGHTSIDE1-1",            52,             1,   761.061E-03,       1.48184,            0.,"ASSEMBLY_RIGHTSIDE1-1_SET-5","A36","",   850.241E-06,   850.241E-06,   25.3957E+03,   25.6820E+03
C:/temp/newjob.odb,Step-1,Increment      1: Step Time =    1.000,"RIGHTSIDE1-1",            52,             2,   950.747E-03,       1.53978,            0.,"ASSEMBLY_RIGHTSIDE1-1_SET-5","A36","",   843.211E-06,   843.211E-06,   25.2617E+03,   25.3489E+03
C:/temp/newjob.odb,Step-1,Increment      1: Step Time =    1.000,"RIGHTSIDE1-1",            52,             3,   686.614E-03,       1.60623,            0.,"ASSEMBLY_RIGHTSIDE1-1_SET-5","A36","",   863.188E-06,   863.188E-06,   25.7660E+03,   26.1002E+03
C:/temp/newjob.odb,Step-1,Increment      1: Step Time =    1.000,"RIGHTSIDE1-1",            52,             4,   838.596E-03,       1.64188,            0.,"ASSEMBLY_RIGHTSIDE1-1_SET-5","A36","",   855.424E-06,   855.424E-06,   25.6335E+03,   25.7071E+03
C:/temp/newjob.odb,Step-1,Increment      1: Step Time =    1.000,"RIGHTSIDE1-1",            53,             1,   19.8937E-03,   905.279E-03,            0.,"ASSEMBLY_RIGHTSIDE1-1_SET-5","A36","",   589.207E-06,   589.207E-06,   17.2443E+03,   19.3088E+03
C:/temp/newjob.odb,Step-1,Increment      1: Step Time =    1.000,"RIGHTSIDE1-1",            53,             2,   189.339E-03,   907.639E-03,            0.,"ASSEMBLY_RIGHTSIDE1-1_SET-5","A36","",   600.323E-06,   600.323E-06,   17.5508E+03,   19.2692E+03
C:/temp/newjob.odb,Step-1,Increment      1: Step Time =    1.000,"RIGHTSIDE1-1",            53,             3,   11.6649E-03,       1.02544,            0.,"ASSEMBLY_RIGHTSIDE1-1_SET-5","A36","",   599.930E-06,   599.930E-06,   17.5557E+03,   19.6433E+03
C:/temp/newjob.odb,Step-1,Increment      1: Step Time =    1.000,"RIGHTSIDE1-1",            53,             4,   170.838E-03,       1.03425,            0.,"ASSEMBLY_RIGHTSIDE1-1_SET-5","A36","",   611.161E-06,   611.161E-06,   17.8696E+03,   19.5843E+03
C:/temp/newjob.odb,Step-1,Increment      1: Step Time =    1.000,"RIGHTSIDE1-1",            54,             1,   313.898E-03,   909.924E-03,            0.,"ASSEMBLY_RIGHTSIDE1-1_SET-5","A36","",   696.804E-06,   696.804E-06,   20.3972E+03,   22.1236E+03
C:/temp/newjob.odb,Step-1,Increment      1: Step Time =    1.000,"RIGHTSIDE1-1",            54,             2,   484.756E-03,   913.808E-03,            0.,"ASSEMBLY_RIGHTSIDE1-1_SET-5","A36","",   705.552E-06,   705.552E-06,   20.7332E+03,   22.0561E+03
C:/temp/newjob.odb,Step-1,Increment      1: Step Time =    1.000,"RIGHTSIDE1-1",            54,             3,   289.290E-03,       1.04278,            0.,"ASSEMBLY_RIGHTSIDE1-1_SET-5","A36","",   697.938E-06,   697.938E-06,   20.4301E+03,   22.1619E+03
C:/temp/newjob.odb,Step-1,Increment      1: Step Time =    1.000,"RIGHTSIDE1-1",            54,             4,   453.734E-03,       1.05727,            0.,"ASSEMBLY_RIGHTSIDE1-1_SET-5","A36","",   706.820E-06,   706.820E-06,   20.7722E+03,   22.0900E+03
C:/temp/newjob.odb,Step-1,Increment      1: Step Time =    1.000,"RIGHTSIDE1-1",            55,             1,   610.640E-03,   916.837E-03,            0.,"ASSEMBLY_RIGHTSIDE1-1_SET-5","A36","",   764.061E-06,   764.061E-06,   22.5121E+03,   23.7088E+03
C:/temp/newjob.odb,Step-1,Increment      1: Step Time =    1.000,"RIGHTSIDE1-1",            55,             2,   783.704E-03,   921.228E-03,            0.,"ASSEMBLY_RIGHTSIDE1-1_SET-5","A36","",   771.240E-06,   771.240E-06,   22.8392E+03,   23.6587E+03
C:/temp/newjob.odb,Step-1,Increment      1: Step Time =    1.000,"RIGHTSIDE1-1",            55,             3,   577.129E-03,       1.06858,            0.,"ASSEMBLY_RIGHTSIDE1-1_SET-5","A36","",   765.693E-06,   765.693E-06,   22.5614E+03,   23.7563E+03
C:/temp/newjob.odb,Step-1,Increment      1: Step Time =    1.000,"RIGHTSIDE1-1",            55,             4,   749.809E-03,       1.08497,            0.,"ASSEMBLY_RIGHTSIDE1-1_SET-5","A36","",   772.672E-06,   772.672E-06,   22.8812E+03,   23.7034E+03
C:/temp/newjob.odb,Step-1,Increment      1: Step Time =    1.000,"RIGHTSIDE1-1",            56,             1,  -78.0391E-03,       1.22289,            0.,"ASSEMBLY_RIGHTSIDE1-1_SET-5","A36","",   745.394E-06,   745.394E-06,   21.9017E+03,   23.3089E+03
C:/temp/newjob.odb,Step-1,Increment      1: Step Time =    1.000,"RIGHTSIDE1-1",            56,             2,  -187.519E-03,       1.27629,            0.,"ASSEMBLY_RIGHTSIDE1-1_SET-5","A36","",   746.013E-06,   746.013E-06,   22.1722E+03,   22.7265E+03
C:/temp/newjob.odb,Step-1,Increment      1: Step Time =    1.000,"RIGHTSIDE1-1",            56,             3,  -100.633E-03,       1.11420,            0.,"ASSEMBLY_RIGHTSIDE1-1_SET-5","A36","",   578.218E-06,   578.218E-06,   16.9502E+03,   18.2312E+03
C:/temp/newjob.odb,Step-1,Increment      1: Step Time =    1.000,"RIGHTSIDE1-1",            56,             4,  -251.311E-03,       1.14667,            0.,"ASSEMBLY_RIGHTSIDE1-1_SET-5","A36","",   613.487E-06,   613.487E-06,   18.1708E+03,   18.8127E+03
C:/temp/newjob.odb,Step-1,Increment      1: Step Time =    1.000,"RIGHTSIDE1-1",            57,             1,   218.268E-03,       1.27947,            0.,"ASSEMBLY_RIGHTSIDE1-1_SET-5","A36","",   761.613E-06,   761.613E-06,   22.3706E+03,   23.8422E+03
C:/temp/newjob.odb,Step-1,Increment      1: Step Time =    1.000,"RIGHTSIDE1-1",            57,             2,   263.666E-03,       1.14180,            0.,"ASSEMBLY_RIGHTSIDE1-1_SET-5","A36","",   741.725E-06,   741.725E-06,   21.7843E+03,   23.2270E+03
C:/temp/newjob.odb,Step-1,Increment      1: Step Time =    1.000,"RIGHTSIDE1-1",            57,             3,   375.011E-03,       1.30684,            0.,"ASSEMBLY_RIGHTSIDE1-1_SET-5","A36","",   763.597E-06,   763.597E-06,   22.5485E+03,   23.5680E+03
C:/temp/newjob.odb,Step-1,Increment      1: Step Time =    1.000,"RIGHTSIDE1-1",            57,             4,   424.328E-03,       1.16259,            0.,"ASSEMBLY_RIGHTSIDE1-1_SET-5","A36","",   744.243E-06,   744.243E-06,   21.9749E+03,   22.9757E+03
C:/temp/newjob.odb,Step-1,Increment      1: Step Time =    1.000,"RIGHTSIDE1-1",            58,             1,  -474.285E-03,       1.41976,            0.,"ASSEMBLY_RIGHTSIDE1-1_SET-5","A36","",   1.03668E-03,   1.03668E-03,   32.0702E+03,   29.9189E+03
C:/temp/newjob.odb,Step-1,Increment      1: Step Time =    1.000,"RIGHTSIDE1-1",            58,             2,  -600.363E-03,       1.44735,            0.,"ASSEMBLY_RIGHTSIDE1-1_SET-5","A36","",   1.06834E-03,   1.06834E-03,   33.5597E+03,   30.3363E+03
C:/temp/newjob.odb,Step-1,Increment      1: Step Time =    1.000,"RIGHTSIDE1-1",            58,             3,  -509.773E-03,       1.32620,            0.,"ASSEMBLY_RIGHTSIDE1-1_SET-5","A36","",   927.001E-06,   927.001E-06,   28.6987E+03,   26.7312E+03
C:/temp/newjob.odb,Step-1,Increment      1: Step Time =    1.000,"RIGHTSIDE1-1",            58,             4,  -597.306E-03,       1.36429,            0.,"ASSEMBLY_RIGHTSIDE1-1_SET-5","A36","",   936.430E-06,   936.430E-06,   29.7710E+03,    26.275E+03
C:/temp/newjob.odb,Step-1,Increment      1: Step Time =    1.000,"RIGHTSIDE1-1",            59,             1,       1.18535,       1.26370,            0.,"ASSEMBLY_RIGHTSIDE1-1_SET-5","A36","",   827.708E-06,   827.708E-06,   24.7468E+03,   24.9622E+03
C:/temp/newjob.odb,Step-1,Increment      1: Step Time =    1.000,"RIGHTSIDE1-1",            59,             2,       1.38605,       1.26470,            0.,"ASSEMBLY_RIGHTSIDE1-1_SET-5","A36","",   830.151E-06,   830.151E-06,   24.8682E+03,   24.9598E+03
C:/temp/newjob.odb,Step-1,Increment      1: Step Time =    1.000,"RIGHTSIDE1-1",            59,             3,       1.15902,       1.45637,            0.,"ASSEMBLY_RIGHTSIDE1-1_SET-5","A36","",   833.473E-06,   833.473E-06,   24.9218E+03,   25.1318E+03
C:/temp/newjob.odb,Step-1,Increment      1: Step Time =    1.000,"RIGHTSIDE1-1",            59,             4,       1.37899,       1.45721,            0.,"ASSEMBLY_RIGHTSIDE1-1_SET-5","A36","",   835.709E-06,   835.709E-06,   25.0328E+03,   25.1299E+03
C:/temp/newjob.odb,Step-1,Increment      1: Step Time =    1.000,"RIGHTSIDE1-1",            60,             1,   495.732E-03,       1.32539,            0.,"ASSEMBLY_RIGHTSIDE1-1_SET-5","A36","",   812.600E-06,   812.600E-06,   24.0155E+03,   25.0339E+03
C:/temp/newjob.odb,Step-1,Increment      1: Step Time =    1.000,"RIGHTSIDE1-1",            60,             2,   546.340E-03,       1.17805,            0.,"ASSEMBLY_RIGHTSIDE1-1_SET-5","A36","",   791.653E-06,   791.653E-06,   23.3925E+03,   24.3977E+03
C:/temp/newjob.odb,Step-1,Increment      1: Step Time =    1.000,"RIGHTSIDE1-1",            60,             3,   668.807E-03,       1.34872,            0.,"ASSEMBLY_RIGHTSIDE1-1_SET-5","A36","",   816.450E-06,   816.450E-06,   24.2715E+03,   24.8613E+03
C:/temp/newjob.odb,Step-1,Increment      1: Step Time =    1.000,"RIGHTSIDE1-1",            60,             4,   719.022E-03,       1.19951,            0.,"ASSEMBLY_RIGHTSIDE1-1_SET-5","A36","",   795.572E-06,   795.572E-06,   23.6501E+03,   24.2269E+03
C:/temp/newjob.odb,Step-1,Increment      1: Step Time =    1.000,"RIGHTSIDE1-1",            61,             1,  -703.167E-03,       1.71436,            0.,"ASSEMBLY_RIGHTSIDE1-1_SET-5","A36","",   1.61479E-03,   1.61479E-03,   48.5304E+03,   48.3157E+03
C:/temp/newjob.odb,Step-1,Increment      1: Step Time =    1.000,"RIGHTSIDE1-1",            61,             2,  -703.696E-03,       1.82193,            0.,"ASSEMBLY_RIGHTSIDE1-1_SET-5","A36","",   1.85519E-03,   1.85519E-03,   55.7431E+03,   55.5263E+03
C:/temp/newjob.odb,Step-1,Increment      1: Step Time =    1.000,"RIGHTSIDE1-1",            61,             3,  -873.424E-03,       1.71352,            0.,"ASSEMBLY_RIGHTSIDE1-1_SET-5","A36","",   1.62668E-03,   1.62668E-03,   49.1286E+03,   48.3352E+03
C:/temp/newjob.odb,Step-1,Increment      1: Step Time =    1.000,"RIGHTSIDE1-1",            61,             4,  -876.111E-03,       1.82170,            0.,"ASSEMBLY_RIGHTSIDE1-1_SET-5","A36","",   1.86556E-03,   1.86556E-03,   56.2908E+03,   55.5047E+03
C:/temp/newjob.odb,Step-1,Increment      1: Step Time =    1.000,"RIGHTSIDE1-1",            62,             1,      -1.47171,       1.64578,            0.,"ASSEMBLY_RIGHTSIDE1-1_SET-5","A36","",   1.95389E-03,   1.95389E-03,   57.5213E+03,   60.7605E+03
C:/temp/newjob.odb,Step-1,Increment      1: Step Time =    1.000,"RIGHTSIDE1-1",            62,             2,      -1.45985,       1.61273,            0.,"ASSEMBLY_RIGHTSIDE1-1_SET-5","A36","",   2.06676E-03,   2.06676E-03,   60.8133E+03,   64.3600E+03
C:/temp/newjob.odb,Step-1,Increment      1: Step Time =    1.000,"RIGHTSIDE1-1",            62,             3,      -1.44561,       1.66611,            0.,"ASSEMBLY_RIGHTSIDE1-1_SET-5","A36","",   1.97314E-03,   1.97314E-03,   58.2937E+03,   60.8339E+03
C:/temp/newjob.odb,Step-1,Increment      1: Step Time =    1.000,"RIGHTSIDE1-1",            62,             4,      -1.42241,       1.62681,            0.,"ASSEMBLY_RIGHTSIDE1-1_SET-5","A36","",   2.05939E-03,   2.05939E-03,   60.7706E+03,   63.6631E+03
C:/temp/newjob.odb,Step-1,Increment      1: Step Time =    1.000,"RIGHTSIDE1-1",            63,             1,      -1.48444,       1.58179,            0.,"ASSEMBLY_RIGHTSIDE1-1_SET-5","A36","",   2.45813E-03,   2.45813E-03,   72.3518E+03,   76.4808E+03
C:/temp/newjob.odb,Step-1,Increment      1: Step Time =    1.000,"RIGHTSIDE1-1",            63,             2,      -1.52547,       1.58088,            0.,"ASSEMBLY_RIGHTSIDE1-1_SET-5","A36","",   2.45666E-03,   2.45666E-03,   72.3031E+03,   76.4507E+03
C:/temp/newjob.odb,Step-1,Increment      1: Step Time =    1.000,"RIGHTSIDE1-1",            63,             3,      -1.48164,       1.54308,            0.,"ASSEMBLY_RIGHTSIDE1-1_SET-5","A36","",   2.84421E-03,   2.84421E-03,   83.8733E+03,   88.0667E+03
C:/temp/newjob.odb,Step-1,Increment      1: Step Time =    1.000,"RIGHTSIDE1-1",            63,             4,      -1.52472,       1.54233,            0.,"ASSEMBLY_RIGHTSIDE1-1_SET-5","A36","",   2.84478E-03,   2.84478E-03,   83.8850E+03,   88.0972E+03
C:/temp/newjob.odb,Step-1,Increment      1: Step Time =    1.000,"RIGHTSIDE1-1",            64,             1,  -820.969E-03,       1.20085,            0.,"ASSEMBLY_RIGHTSIDE1-1_SET-5","A36","",   573.804E-06,   573.804E-06,   21.9135E+03,   13.7616E+03
C:/temp/newjob.odb,Step-1,Increment      1: Step Time =    1.000,"RIGHTSIDE1-1",            64,             2,  -790.408E-03,       1.15006,            0.,"ASSEMBLY_RIGHTSIDE1-1_SET-5","A36","",   522.347E-06,  -536.810E-06,   21.1697E+03,   11.9111E+03
C:/temp/newjob.odb,Step-1,Increment      1: Step Time =    1.000,"RIGHTSIDE1-1",            64,             3,  -740.212E-03,       1.23991,            0.,"ASSEMBLY_RIGHTSIDE1-1_SET-5","A36","",   648.087E-06,   648.087E-06,   22.7139E+03,   16.6894E+03
C:/temp/newjob.odb,Step-1,Increment      1: Step Time =    1.000,"RIGHTSIDE1-1",            64,             4,  -700.949E-03,       1.18286,            0.,"ASSEMBLY_RIGHTSIDE1-1_SET-5","A36","",   611.719E-06,   611.719E-06,   22.3364E+03,   15.2272E+03
C:/temp/newjob.odb,Step-1,Increment      1: Step Time =    1.000,"RIGHTSIDE1-1",            65,             1,  -673.670E-03,       1.43327,            0.,"ASSEMBLY_RIGHTSIDE1-1_SET-5","A36","",   1.01087E-03,   1.01087E-03,   31.4527E+03,   28.9914E+03
C:/temp/newjob.odb,Step-1,Increment      1: Step Time =    1.000,"RIGHTSIDE1-1",            65,             2,  -747.871E-03,       1.36720,            0.,"ASSEMBLY_RIGHTSIDE1-1_SET-5","A36","",   1.00400E-03,   1.00400E-03,   31.6743E+03,   28.3859E+03
C:/temp/newjob.odb,Step-1,Increment      1: Step Time =    1.000,"RIGHTSIDE1-1",            65,             3,  -652.577E-03,       1.36041,            0.,"ASSEMBLY_RIGHTSIDE1-1_SET-5","A36","",   992.802E-06,   992.802E-06,   31.8160E+03,   27.6442E+03
C:/temp/newjob.odb,Step-1,Increment      1: Step Time =    1.000,"RIGHTSIDE1-1",            65,             4,  -716.045E-03,       1.31172,            0.,"ASSEMBLY_RIGHTSIDE1-1_SET-5","A36","",   975.131E-06,   975.131E-06,   31.9799E+03,   26.5816E+03
C:/temp/newjob.odb,Step-1,Increment      1: Step Time =    1.000,"RIGHTSIDE1-1",            66,             1,  -211.029E-03,       1.41302,            0.,"ASSEMBLY_RIGHTSIDE1-1_SET-5","A36","",   984.913E-06,   984.913E-06,   29.4882E+03,   29.6379E+03
C:/temp/newjob.odb,Step-1,Increment      1: Step Time =    1.000,"RIGHTSIDE1-1",            66,             2,  -122.682E-03,       1.53862,            0.,"ASSEMBLY_RIGHTSIDE1-1_SET-5","A36","",   1.07121E-03,   1.07121E-03,   32.0970E+03,   32.1957E+03
C:/temp/newjob.odb,Step-1,Increment      1: Step Time =    1.000,"RIGHTSIDE1-1",            66,             3,  -347.606E-03,       1.46765,            0.,"ASSEMBLY_RIGHTSIDE1-1_SET-5","A36","",   988.624E-06,   988.624E-06,   29.9040E+03,   29.3154E+03
C:/temp/newjob.odb,Step-1,Increment      1: Step Time =    1.000,"RIGHTSIDE1-1",            66,             4,  -299.157E-03,       1.58598,            0.,"ASSEMBLY_RIGHTSIDE1-1_SET-5","A36","",   1.08629E-03,   1.08629E-03,   32.7992E+03,   32.2901E+03
C:/temp/newjob.odb,Step-1,Increment      1: Step Time =    1.000,"RIGHTSIDE1-1",            67,             1,      -1.45388,       1.58574,            0.,"ASSEMBLY_RIGHTSIDE1-1_SET-5","A36","",   2.31570E-03,   2.31570E-03,   68.3551E+03,   71.5351E+03
C:/temp/newjob.odb,Step-1,Increment      1: Step Time =    1.000,"RIGHTSIDE1-1",            67,             2,      -1.44943,       1.54506,            0.,"ASSEMBLY_RIGHTSIDE1-1_SET-5","A36","",   2.59651E-03,   2.59651E-03,   76.7160E+03,   80.0392E+03
C:/temp/newjob.odb,Step-1,Increment      1: Step Time =    1.000,"RIGHTSIDE1-1",            67,             3,      -1.41141,       1.59562,            0.,"ASSEMBLY_RIGHTSIDE1-1_SET-5","A36","",   2.33858E-03,   2.33858E-03,   69.1225E+03,   72.0260E+03
C:/temp/newjob.odb,Step-1,Increment      1: Step Time =    1.000,"RIGHTSIDE1-1",            67,             4,      -1.40454,       1.54970,            0.,"ASSEMBLY_RIGHTSIDE1-1_SET-5","A36","",   2.58572E-03,   2.58572E-03,   76.4813E+03,   79.5165E+03
C:/temp/newjob.odb,Step-1,Increment      1: Step Time =    1.000,"RIGHTSIDE1-1",            68,             1,      -1.00044,       1.47868,            0.,"ASSEMBLY_RIGHTSIDE1-1_SET-5","A36","",   1.45316E-03,   1.45316E-03,   45.6508E+03,   41.2606E+03
C:/temp/newjob.odb,Step-1,Increment      1: Step Time =    1.000,"RIGHTSIDE1-1",            68,             2,  -913.946E-03,       1.52750,            0.,"ASSEMBLY_RIGHTSIDE1-1_SET-5","A36","",   1.46082E-03,   1.46082E-03,   45.1457E+03,   42.2065E+03
C:/temp/newjob.odb,Step-1,Increment      1: Step Time =    1.000,"RIGHTSIDE1-1",            68,             3,      -1.01725,       1.54678,            0.,"ASSEMBLY_RIGHTSIDE1-1_SET-5","A36","",   1.60026E-03,   1.60026E-03,   49.1740E+03,   46.5348E+03
C:/temp/newjob.odb,Step-1,Increment      1: Step Time =    1.000,"RIGHTSIDE1-1",            68,             4,  -946.415E-03,       1.61443,            0.,"ASSEMBLY_RIGHTSIDE1-1_SET-5","A36","",   1.56300E-03,   1.56300E-03,   47.5739E+03,   45.9747E+03
